File : Instances/p65
Used 135s
27778

1 1 0 0 1 0 0 0 0 1 0 1 0 0 0 0 1 0 1 1 1 0 0 0 0 0 0 0 0 0 
18 19 16 18 16 11 16 18 18 0 4 19 20 1 19 18 1 20 16 0 18 16 1 0 20 18 18 19 4 16 19 19 4 16 0 19 20 9 16 16 18 9 19 4 20 19 20 16 19 20 0 16 16 16 20 19 18 9 18 11 4 0 18 20 20 11 1 19 19 11 18 11 19 9 20 1 20 1 9 16 1 0 9 11 4 20 4 1 18 18 19 19 11 11 0 1 11 19 0 11 19 16 11 18 4 0 4 16 18 1 19 4 18 11 11 20 11 18 0 20 9 11 0 19 9 16 0 11 19 0 11 16 11 20 1 9 1 1 11 20 11 18 11 11 11 0 16 16 18 11 0 0 1 0 20 11 0 16 20 1 1 0 20 0 0 18 1 4 1 16 1 20 19 20 4 0 0 20 4 20 0 16 16 19 11 9 11 1 0 16 0 16 19 4 18 19 18 16 20 19 
